w = 8;
h = 8;
n = 4;
m = 6;
rect_size = [|
3, 3|
3, 5|
5, 3|
5, 3|
3, 5|
5, 5|];
rect_offset = [|
0, 0|
0, 0|
0, 0|
0, 0|
0, 0|
0, 0|];
shape = [{1}, {2}, {3}, {4}, {5}, {6}];
shapeind = [{1}, {2, 3}, {4, 5}, {6}];
ncopy = [1, 1, 1, 1];
c = 4;
